set NODES := 0 1 2 3 4;

param C :
    0   1   2   3   4 :=
 0  2155  300  2155  654  926
 1  305  2155  963  117  237
 2  952  493  2155  704  686
 3  678  123  2155  2155  41
 4  946  237  1155  34  2155
;

set PROHIBITED := ;

param start_node := 0;
param end_node := 4;
